n= 10; m=6; 


4	15	4	53	19	35	32	10	18	25
39	29	9	87	37	89	57	18	28	32
92	35	51	52	22	71	43	17	65	47
51	26	92	69	33	74	27	1	4	50
76	47	73	57	63	69	17	35	24	29
92	35	51	52	22	71	43	17	65	47
									

